p cnf 59 185
a 34 12 0
e 1 2 3 4 5 6 7 8 9 10 11 13 14 15 16 17 18 19 20 21 22 23 24 25 26 27 28 29 30 31 32 33 35 36 37 38 39 40 41 42 43 44 45 46 47 48 49 50 51 52 53 54 55 56 57 58 59 0
3 1 0
3 -2 0
-1 2 -3 0
-5 4 0
-5 -1 0
-4 1 5 0
-7 -5 0
-7 6 0
5 -6 7 0
8 3 0
8 -7 0
-3 7 -8 0
-10 2 0
-10 -9 0
-2 9 10 0
10 -4 -11 0
-10 4 -11 0
10 4 11 0
-10 -4 11 0
13 12 0
13 1 0
-12 -1 -13 0
-2 -13 -14 0
2 13 -14 0
-2 13 14 0
2 -13 14 0
4 -14 -15 0
-4 14 -15 0
4 14 15 0
-4 -14 15 0
17 -16 0
17 -4 0
16 4 -17 0
18 -17 0
18 -17 0
17 -18 0
-19 17 0
-19 9 0
-17 -9 19 0
-19 7 -20 0
19 -7 -20 0
-19 -7 20 0
19 7 20 0
-18 20 -21 0
18 -20 -21 0
-18 -20 21 0
18 20 21 0
22 15 0
22 21 0
-15 -21 -22 0
23 -11 0
23 -22 0
11 22 -23 0
13 16 -24 0
-13 -16 -24 0
13 -16 24 0
-13 16 24 0
-23 24 -25 0
23 -24 -25 0
-23 -24 25 0
23 24 25 0
1 -26 -27 0
-1 26 -27 0
1 26 27 0
-1 -26 27 0
-16 27 -28 0
16 -27 -28 0
-16 -27 28 0
16 27 28 0
21 -19 -29 0
-21 19 -29 0
21 19 29 0
-21 -19 29 0
29 16 -30 0
-29 -16 -30 0
29 -16 30 0
-29 16 30 0
-31 -28 0
-31 30 0
28 -30 31 0
25 -31 -32 0
-25 31 -32 0
25 31 32 0
-25 -31 32 0
-33 -10 0
-33 -10 0
10 33 0
34 15 0
34 33 0
-15 -33 -34 0
-36 -35 0
-36 -1 0
35 1 36 0
-36 2 -37 0
36 -2 -37 0
-36 -2 37 0
36 2 37 0
-38 1 0
-38 -37 0
-1 37 38 0
39 35 0
39 14 0
-35 -14 -39 0
-40 -39 0
-40 -27 0
39 27 40 0
41 38 0
41 -40 0
-38 40 -41 0
-42 34 0
-42 41 0
-34 -41 42 0
43 -32 0
43 42 0
32 -42 -43 0
-44 5 0
-44 -13 0
-5 13 44 0
2 -3 -45 0
-2 3 -45 0
2 3 45 0
-2 -3 45 0
46 45 0
46 -18 0
-45 18 -46 0
-47 -44 0
-47 -46 0
44 46 47 0
5 -10 -48 0
-5 10 -48 0
5 10 48 0
-5 -10 48 0
49 48 0
49 -19 0
-48 19 -49 0
-50 -12 0
-50 18 0
12 -18 50 0
51 1 0
51 39 0
-1 -39 -51 0
50 51 -52 0
-50 -51 -52 0
50 -51 52 0
-50 51 52 0
14 -53 -54 0
-14 53 -54 0
14 53 54 0
-14 -53 54 0
52 54 -55 0
-52 -54 -55 0
52 -54 55 0
-52 54 55 0
56 49 0
56 55 0
-49 -55 -56 0
-47 56 -57 0
47 -56 -57 0
-47 -56 57 0
47 56 57 0
-43 -57 -58 0
43 57 -58 0
-43 57 58 0
43 -57 58 0
59 8 0
59 58 0
-8 -58 -59 0
2 20 30 55 -33 -51 -22 -32 0
-47 37 51 32 0
-6 -34 -28 -46 0
-26 -59 53 58 37 35 -56 0
7 36 0
-40 -27 -32 -41 0
40 -37 -12 43 -5 30 27 28 0
24 25 -52 -8 -12 0
-3 -12 -30 19 -44 -56 -49 37 0
-48 6 -14 44 -59 -10 0
-17 54 51 -44 50 -41 -36 46 0
-38 58 29 37 20 0
-51 25 43 0
52 -31 12 15 41 -9 -10 57 0
1 -40 -18 -34 29 -8 35 -28 0
-2 50 15 53 14 -24 51 0
12 40 -10 14 -3 -17 0
59 0
